NAME : pairopt
TYPE : ACVRP
DIMENSION : 8
EDGE_WEIGHT_TYPE : EXPLICIT
EDGE_WEIGHT_FORMAT : FULL_MATRIX
CAPACITY : 18750
VEHICLES : 2
EDGE_WEIGHT_SECTION
100000 -100000 -100000 100000 100000 100000 100000 100000 
100000 100000 1000000 50972 51174 51061 576 50120 
100000 1000000 100000 50921 51135 51042 50335 50219 
0 50972 50921 100000 415 353 101802 102121 
0 51174 51135 415 100000 266 102121 102500 
0 51061 51042 353 266 100000 101802 102236 
0 576 50335 101802 102121 101802 100000 250 
0 50120 50219 102121 102500 102236 250 100000 
DEMAND_SECTION
1 0
2 0
3 0
4 5000
5 5000
6 5000
7 5000
8 5000
DEPOT_SECTION
1
EOF